Set parameter TokenServer to value "hpc-licenses.hpcc.usc.edu"
Set parameter TimeLimit to value 3600
Gurobi Optimizer version 9.5.1 build v9.5.1rc2 (linux64)
Thread count: 20 physical cores, 20 logical processors, using up to 20 threads
Optimize a model with 6007 rows, 4529 columns and 24534 nonzeros
Model fingerprint: 0xc4b1b42c
Variable types: 4506 continuous, 23 integer (23 binary)
Coefficient statistics:
  Matrix range     [1e+00, 1e+00]
  Objective range  [9e-05, 4e+00]
  Bounds range     [1e+00, 1e+00]
  RHS range        [1e+00, 2e+02]
Found heuristic solution: objective 258.6390682
Presolve removed 1520 rows and 1515 columns
Presolve time: 0.08s
Presolved: 4487 rows, 3014 columns, 21975 nonzeros
Variable types: 2994 continuous, 20 integer (20 binary)

Root relaxation: objective 2.815397e+02, 2790 iterations, 0.12 seconds (0.12 work units)

    Nodes    |    Current Node    |     Objective Bounds      |     Work
 Expl Unexpl |  Obj  Depth IntInf | Incumbent    BestBd   Gap | It/Node Time

     0     0  281.53970    0    2  258.63907  281.53970  8.85%     -    0s
H    0     0                     266.0827083  281.53970  5.81%     -    0s
     0     0  281.49436    0    2  266.08271  281.49436  5.79%     -    0s
H    0     0                     268.3115261  281.49436  4.91%     -    0s
     0     0  281.43061    0    2  268.31153  281.43061  4.89%     -    0s
     0     0  281.40999    0    2  268.31153  281.40999  4.88%     -    0s
     0     0  280.46319    0    2  268.31153  280.46319  4.53%     -    0s
     0     0  280.40654    0    3  268.31153  280.40654  4.51%     -    0s
     0     0  280.13401    0    3  268.31153  280.13401  4.41%     -    0s
     0     0  280.13401    0    3  268.31153  280.13401  4.41%     -    0s
     0     0  278.99350    0    5  268.31153  278.99350  3.98%     -    1s
     0     0  278.99350    0    5  268.31153  278.99350  3.98%     -    1s
     0     2  278.99350    0    5  268.31153  278.99350  3.98%     -    1s
*    8     2               4     271.2982202  278.84021  2.78%   492    1s
*   26     2              13     271.7585448  277.48382  2.11%   288    2s
H   27     2                     273.3734066  277.48382  1.50%   277    2s

Cutting planes:
  Gomory: 1
  MIR: 113
  Flow cover: 4
  RLT: 11
  Relax-and-lift: 1

Explored 31 nodes (12714 simplex iterations) in 2.62 seconds (2.10 work units)
Thread count was 20 (of 20 available processors)

Solution count 6: 273.373 271.759 271.298 ... 258.639

Optimal solution found (tolerance 1.00e-04)
Best objective 2.733734065643e+02, best bound 2.733734065643e+02, gap 0.0000%



#########node  1
V1.6
#########node  2
0.0,1.0
#########node  3
0.9868421052631579,0.013157894736842146


Total Solving Time 3.0168042182922363
obj value 273.3734065643222
Policy Regret train (Sum) 7.333573780976075
Best Treatment Found train (%) 64.2
treatment classification acc train (%) 81.8
Policy Regret test (Sum) 28.73848887990478
Best Treatment Found test (%) 83.74000000000001
treatment classification acc test (%) 82.0
